72
0 63 54 5 32 16 67 22 35 64 
45 39 27 65 61 47 55 46 53 20 
11 12 24 15 70 31 58 18 43 3 
48 33 49 6 10 56 17 41 26 13 
21 29 44 25 36 66 23 40 1 62 
28 60 71 52 34 9 57 8 50 51 
14 19 7 2 59 37 68 42 30 38 
4 69 
